NAME : rbg035a.tw.3388.tour
COMMENT : Length = 3388
COMMENT : Found by LKH [Keld Helsgaun] Tue Nov  7 19:33:19 2017
TYPE : TOUR
DIMENSION : 36
TOUR_SECTION
1
3
4
2
6
5
8
7
10
11
9
15
18
13
17
12
21
14
16
22
20
19
24
27
26
23
25
29
31
28
32
30
33
34
35
36
-1
EOF
